100
32
29
2
15
4
3
13
32
31
21
2
9
9
17
17
3
2
2
5
2
3
3
1
17
3
2
1
17
5
2
1
4
17
1
2
4
1
1
1
21
3
1
3
1
1
1
3
1
17
18
2
1
1
1
3
2
1
1
1
2
3
5
16
1
2
2
1
1
4
1
3
1
1
5
2
1
2
22
5
19
21
2
2
1
2
2
2
2
3
1
1
7
1
1
1
1
1
1
1
4
1